NAME          
ROWS
 N  OBJ
 L  c1
COLUMNS
    MARKER    'MARKER'                 'INTORG'
    x[1]      c1        -55
    x[1]      OBJ       -36
    x[2]      c1        685
    x[2]      OBJ       -697
    x[3]      OBJ       -85
    x[4]      c1        454
    x[4]      OBJ       -387
    x[5]      c1        864
    x[5]      OBJ       -890
    x[6]      c1        806
    x[6]      OBJ       -904
    x[7]      c1        220
    x[7]      OBJ       -308
    x[8]      c1        516
    x[8]      OBJ       -586
    x[9]      c1        696
    x[9]      OBJ       -791
    x[10]     c1        450
    x[10]     OBJ       -497
RHS
    rhs       c1        2318
RANGES
BOUNDS
 BV bounds    x[1]
 BV bounds    x[2]
 BV bounds    x[3]
 BV bounds    x[4]
 BV bounds    x[5]
 BV bounds    x[6]
 BV bounds    x[7]
 BV bounds    x[8]
 BV bounds    x[9]
 BV bounds    x[10]
ENDATA
